c Standarized MaxSat Instance
c{
c "sha1sum": "0f20b06abfd87f78aaa8eaef7b48b0edf1b508ac",
c "nvars": 42,
c "ncls": 1260,
c "nhards": 0,
c "nhard_len_stats":
c    { "min": 0, "max": 0, "ave": 0.00,
c      "stddev": 0.00 },
c "nsofts": 1260,
c "nsoft_len_stats":
c    { "min": 2, "max": 2, "ave": 2.00,
c      "stddev": 0.00 },
c "nsoft_wts": 10,
c "soft_wt_stats":
c    { "min": 1, "max": 10, "ave": 5.67,
c      "stddev": 2.81 }
c}
c------------------------------------------------------------
c File  p_hat700-3.clq                
c
c Source: P. Soriano and M. Gendreau at  patrick@crt.umontreal.ca
c
c Reference: p-hat graphs are generated with the p-hat generator
c 	      which is a generalization of the classical uniform
c 	      random graph generator.
c 	      Graphs generated with p-hat have wider node degree spread
c 	      and larger cliques than uniform graphs.
c
c NOTE: September 23, 1993 Corrected corrupted file at DIMACS.
c
c
c Generation parameters: 
c 	n =    700 a =  0.50  b =  1.00  Expected density =  0.75
c	Seed =      16313       Real density =  0.748
c
p wcnf 42 1260 7145
9 1 2 0
9 -1 -2 0
4 1 4 0
4 -1 -4 0
8 1 5 0
8 -1 -5 0
8 1 6 0
8 -1 -6 0
10 1 8 0
10 -1 -8 0
2 1 9 0
2 -1 -9 0
4 1 10 0
4 -1 -10 0
8 1 12 0
8 -1 -12 0
3 1 13 0
3 -1 -13 0
6 1 15 0
6 -1 -15 0
5 1 17 0
5 -1 -17 0
7 1 18 0
7 -1 -18 0
4 1 19 0
4 -1 -19 0
6 1 20 0
6 -1 -20 0
10 1 21 0
10 -1 -21 0
10 1 22 0
10 -1 -22 0
7 1 24 0
7 -1 -24 0
8 1 26 0
8 -1 -26 0
2 1 27 0
2 -1 -27 0
7 1 31 0
7 -1 -31 0
1 1 32 0
1 -1 -32 0
3 1 33 0
3 -1 -33 0
2 1 34 0
2 -1 -34 0
9 1 35 0
9 -1 -35 0
2 1 36 0
2 -1 -36 0
5 1 37 0
5 -1 -37 0
2 1 38 0
2 -1 -38 0
2 1 39 0
2 -1 -39 0
10 1 42 0
10 -1 -42 0
3 2 6 0
3 -2 -6 0
6 2 9 0
6 -2 -9 0
9 2 11 0
9 -2 -11 0
7 2 12 0
7 -2 -12 0
3 2 13 0
3 -2 -13 0
7 2 14 0
7 -2 -14 0
6 2 15 0
6 -2 -15 0
5 2 16 0
5 -2 -16 0
10 2 18 0
10 -2 -18 0
3 2 19 0
3 -2 -19 0
8 2 21 0
8 -2 -21 0
6 2 22 0
6 -2 -22 0
8 2 23 0
8 -2 -23 0
5 2 24 0
5 -2 -24 0
9 2 28 0
9 -2 -28 0
3 2 30 0
3 -2 -30 0
4 2 31 0
4 -2 -31 0
9 2 32 0
9 -2 -32 0
10 2 34 0
10 -2 -34 0
1 2 35 0
1 -2 -35 0
10 2 37 0
10 -2 -37 0
6 2 40 0
6 -2 -40 0
1 2 41 0
1 -2 -41 0
2 2 42 0
2 -2 -42 0
7 3 4 0
7 -3 -4 0
9 3 5 0
9 -3 -5 0
4 3 9 0
4 -3 -9 0
1 3 10 0
1 -3 -10 0
1 3 11 0
1 -3 -11 0
5 3 12 0
5 -3 -12 0
1 3 13 0
1 -3 -13 0
3 3 18 0
3 -3 -18 0
10 3 21 0
10 -3 -21 0
10 3 22 0
10 -3 -22 0
9 3 23 0
9 -3 -23 0
3 3 24 0
3 -3 -24 0
6 3 25 0
6 -3 -25 0
4 3 26 0
4 -3 -26 0
8 3 29 0
8 -3 -29 0
6 3 31 0
6 -3 -31 0
7 3 32 0
7 -3 -32 0
6 3 34 0
6 -3 -34 0
1 3 35 0
1 -3 -35 0
5 3 36 0
5 -3 -36 0
10 3 38 0
10 -3 -38 0
10 3 39 0
10 -3 -39 0
8 3 40 0
8 -3 -40 0
3 3 41 0
3 -3 -41 0
8 3 42 0
8 -3 -42 0
7 4 5 0
7 -4 -5 0
4 4 6 0
4 -4 -6 0
7 4 7 0
7 -4 -7 0
2 4 8 0
2 -4 -8 0
5 4 9 0
5 -4 -9 0
9 4 10 0
9 -4 -10 0
9 4 11 0
9 -4 -11 0
4 4 12 0
4 -4 -12 0
3 4 13 0
3 -4 -13 0
9 4 14 0
9 -4 -14 0
4 4 15 0
4 -4 -15 0
7 4 16 0
7 -4 -16 0
10 4 19 0
10 -4 -19 0
6 4 20 0
6 -4 -20 0
7 4 21 0
7 -4 -21 0
9 4 22 0
9 -4 -22 0
5 4 23 0
5 -4 -23 0
10 4 24 0
10 -4 -24 0
4 4 25 0
4 -4 -25 0
9 4 26 0
9 -4 -26 0
7 4 28 0
7 -4 -28 0
10 4 29 0
10 -4 -29 0
5 4 30 0
5 -4 -30 0
3 4 31 0
3 -4 -31 0
10 4 32 0
10 -4 -32 0
10 4 33 0
10 -4 -33 0
2 4 34 0
2 -4 -34 0
9 4 35 0
9 -4 -35 0
7 4 36 0
7 -4 -36 0
5 4 37 0
5 -4 -37 0
7 4 40 0
7 -4 -40 0
3 4 41 0
3 -4 -41 0
8 4 42 0
8 -4 -42 0
4 5 6 0
4 -5 -6 0
5 5 7 0
5 -5 -7 0
3 5 8 0
3 -5 -8 0
2 5 9 0
2 -5 -9 0
3 5 10 0
3 -5 -10 0
6 5 11 0
6 -5 -11 0
5 5 12 0
5 -5 -12 0
2 5 13 0
2 -5 -13 0
10 5 14 0
10 -5 -14 0
2 5 15 0
2 -5 -15 0
2 5 16 0
2 -5 -16 0
5 5 18 0
5 -5 -18 0
8 5 19 0
8 -5 -19 0
10 5 20 0
10 -5 -20 0
10 5 21 0
10 -5 -21 0
7 5 22 0
7 -5 -22 0
4 5 23 0
4 -5 -23 0
8 5 24 0
8 -5 -24 0
4 5 26 0
4 -5 -26 0
3 5 27 0
3 -5 -27 0
3 5 29 0
3 -5 -29 0
6 5 30 0
6 -5 -30 0
3 5 31 0
3 -5 -31 0
2 5 32 0
2 -5 -32 0
8 5 34 0
8 -5 -34 0
2 5 35 0
2 -5 -35 0
8 5 36 0
8 -5 -36 0
2 5 37 0
2 -5 -37 0
8 5 39 0
8 -5 -39 0
1 5 40 0
1 -5 -40 0
10 5 41 0
10 -5 -41 0
1 5 42 0
1 -5 -42 0
6 6 7 0
6 -6 -7 0
2 6 8 0
2 -6 -8 0
3 6 10 0
3 -6 -10 0
8 6 14 0
8 -6 -14 0
8 6 15 0
8 -6 -15 0
7 6 16 0
7 -6 -16 0
10 6 17 0
10 -6 -17 0
7 6 18 0
7 -6 -18 0
8 6 19 0
8 -6 -19 0
1 6 20 0
1 -6 -20 0
2 6 21 0
2 -6 -21 0
6 6 22 0
6 -6 -22 0
1 6 23 0
1 -6 -23 0
1 6 24 0
1 -6 -24 0
3 6 25 0
3 -6 -25 0
5 6 26 0
5 -6 -26 0
9 6 28 0
9 -6 -28 0
6 6 29 0
6 -6 -29 0
8 6 30 0
8 -6 -30 0
1 6 31 0
1 -6 -31 0
2 6 34 0
2 -6 -34 0
10 6 35 0
10 -6 -35 0
3 6 36 0
3 -6 -36 0
9 6 38 0
9 -6 -38 0
2 6 39 0
2 -6 -39 0
10 6 40 0
10 -6 -40 0
1 6 41 0
1 -6 -41 0
9 6 42 0
9 -6 -42 0
1 7 9 0
1 -7 -9 0
1 7 10 0
1 -7 -10 0
10 7 11 0
10 -7 -11 0
6 7 12 0
6 -7 -12 0
2 7 14 0
2 -7 -14 0
2 7 15 0
2 -7 -15 0
4 7 16 0
4 -7 -16 0
10 7 17 0
10 -7 -17 0
9 7 18 0
9 -7 -18 0
4 7 19 0
4 -7 -19 0
6 7 21 0
6 -7 -21 0
6 7 22 0
6 -7 -22 0
5 7 23 0
5 -7 -23 0
7 7 24 0
7 -7 -24 0
1 7 26 0
1 -7 -26 0
6 7 27 0
6 -7 -27 0
8 7 28 0
8 -7 -28 0
4 7 29 0
4 -7 -29 0
10 7 31 0
10 -7 -31 0
6 7 32 0
6 -7 -32 0
9 7 33 0
9 -7 -33 0
8 7 34 0
8 -7 -34 0
7 7 35 0
7 -7 -35 0
1 7 36 0
1 -7 -36 0
8 7 37 0
8 -7 -37 0
9 7 42 0
9 -7 -42 0
10 8 12 0
10 -8 -12 0
9 8 13 0
9 -8 -13 0
9 8 14 0
9 -8 -14 0
10 8 15 0
10 -8 -15 0
8 8 16 0
8 -8 -16 0
10 8 17 0
10 -8 -17 0
10 8 18 0
10 -8 -18 0
7 8 19 0
7 -8 -19 0
5 8 20 0
5 -8 -20 0
2 8 21 0
2 -8 -21 0
9 8 22 0
9 -8 -22 0
9 8 23 0
9 -8 -23 0
1 8 24 0
1 -8 -24 0
7 8 27 0
7 -8 -27 0
3 8 28 0
3 -8 -28 0
7 8 29 0
7 -8 -29 0
3 8 31 0
3 -8 -31 0
8 8 32 0
8 -8 -32 0
4 8 33 0
4 -8 -33 0
4 8 34 0
4 -8 -34 0
3 8 35 0
3 -8 -35 0
1 8 37 0
1 -8 -37 0
7 8 39 0
7 -8 -39 0
3 8 40 0
3 -8 -40 0
7 8 41 0
7 -8 -41 0
6 8 42 0
6 -8 -42 0
10 9 10 0
10 -9 -10 0
3 9 12 0
3 -9 -12 0
6 9 13 0
6 -9 -13 0
8 9 14 0
8 -9 -14 0
2 9 15 0
2 -9 -15 0
5 9 16 0
5 -9 -16 0
6 9 18 0
6 -9 -18 0
10 9 19 0
10 -9 -19 0
5 9 20 0
5 -9 -20 0
4 9 21 0
4 -9 -21 0
9 9 26 0
9 -9 -26 0
5 9 27 0
5 -9 -27 0
1 9 28 0
1 -9 -28 0
4 9 29 0
4 -9 -29 0
6 9 32 0
6 -9 -32 0
9 9 34 0
9 -9 -34 0
3 9 35 0
3 -9 -35 0
7 9 37 0
7 -9 -37 0
5 9 38 0
5 -9 -38 0
5 9 39 0
5 -9 -39 0
4 9 42 0
4 -9 -42 0
8 10 11 0
8 -10 -11 0
2 10 13 0
2 -10 -13 0
7 10 14 0
7 -10 -14 0
1 10 15 0
1 -10 -15 0
5 10 18 0
5 -10 -18 0
7 10 20 0
7 -10 -20 0
7 10 23 0
7 -10 -23 0
7 10 26 0
7 -10 -26 0
4 10 28 0
4 -10 -28 0
2 10 29 0
2 -10 -29 0
7 10 30 0
7 -10 -30 0
7 10 31 0
7 -10 -31 0
8 10 32 0
8 -10 -32 0
4 10 33 0
4 -10 -33 0
8 10 34 0
8 -10 -34 0
3 10 35 0
3 -10 -35 0
10 10 37 0
10 -10 -37 0
7 10 39 0
7 -10 -39 0
7 10 40 0
7 -10 -40 0
3 10 41 0
3 -10 -41 0
6 11 12 0
6 -11 -12 0
1 11 15 0
1 -11 -15 0
3 11 16 0
3 -11 -16 0
9 11 18 0
9 -11 -18 0
7 11 19 0
7 -11 -19 0
1 11 21 0
1 -11 -21 0
2 11 23 0
2 -11 -23 0
4 11 24 0
4 -11 -24 0
6 11 25 0
6 -11 -25 0
6 11 26 0
6 -11 -26 0
7 11 27 0
7 -11 -27 0
3 11 28 0
3 -11 -28 0
8 11 29 0
8 -11 -29 0
3 11 31 0
3 -11 -31 0
4 11 34 0
4 -11 -34 0
2 11 35 0
2 -11 -35 0
10 11 36 0
10 -11 -36 0
1 11 37 0
1 -11 -37 0
9 11 39 0
9 -11 -39 0
4 11 40 0
4 -11 -40 0
2 11 41 0
2 -11 -41 0
5 11 42 0
5 -11 -42 0
10 12 13 0
10 -12 -13 0
10 12 14 0
10 -12 -14 0
8 12 15 0
8 -12 -15 0
7 12 16 0
7 -12 -16 0
2 12 17 0
2 -12 -17 0
7 12 18 0
7 -12 -18 0
4 12 20 0
4 -12 -20 0
8 12 22 0
8 -12 -22 0
10 12 23 0
10 -12 -23 0
10 12 24 0
10 -12 -24 0
9 12 25 0
9 -12 -25 0
3 12 26 0
3 -12 -26 0
8 12 28 0
8 -12 -28 0
6 12 30 0
6 -12 -30 0
3 12 31 0
3 -12 -31 0
10 12 32 0
10 -12 -32 0
10 12 33 0
10 -12 -33 0
9 12 34 0
9 -12 -34 0
5 12 35 0
5 -12 -35 0
6 12 36 0
6 -12 -36 0
2 12 37 0
2 -12 -37 0
3 12 38 0
3 -12 -38 0
9 12 39 0
9 -12 -39 0
5 12 40 0
5 -12 -40 0
5 12 41 0
5 -12 -41 0
9 12 42 0
9 -12 -42 0
5 13 14 0
5 -13 -14 0
3 13 16 0
3 -13 -16 0
2 13 17 0
2 -13 -17 0
7 13 18 0
7 -13 -18 0
8 13 19 0
8 -13 -19 0
2 13 22 0
2 -13 -22 0
7 13 23 0
7 -13 -23 0
5 13 24 0
5 -13 -24 0
9 13 25 0
9 -13 -25 0
8 13 28 0
8 -13 -28 0
2 13 30 0
2 -13 -30 0
3 13 31 0
3 -13 -31 0
5 13 32 0
5 -13 -32 0
2 13 34 0
2 -13 -34 0
2 13 35 0
2 -13 -35 0
4 13 38 0
4 -13 -38 0
4 13 42 0
4 -13 -42 0
10 14 15 0
10 -14 -15 0
10 14 16 0
10 -14 -16 0
7 14 18 0
7 -14 -18 0
9 14 20 0
9 -14 -20 0
9 14 21 0
9 -14 -21 0
5 14 22 0
5 -14 -22 0
4 14 24 0
4 -14 -24 0
4 14 25 0
4 -14 -25 0
7 14 26 0
7 -14 -26 0
7 14 27 0
7 -14 -27 0
3 14 28 0
3 -14 -28 0
2 14 29 0
2 -14 -29 0
1 14 31 0
1 -14 -31 0
2 14 33 0
2 -14 -33 0
7 14 34 0
7 -14 -34 0
4 14 35 0
4 -14 -35 0
3 14 36 0
3 -14 -36 0
4 14 38 0
4 -14 -38 0
1 14 39 0
1 -14 -39 0
5 14 40 0
5 -14 -40 0
10 15 17 0
10 -15 -17 0
6 15 18 0
6 -15 -18 0
3 15 19 0
3 -15 -19 0
7 15 20 0
7 -15 -20 0
8 15 21 0
8 -15 -21 0
5 15 22 0
5 -15 -22 0
2 15 23 0
2 -15 -23 0
9 15 24 0
9 -15 -24 0
7 15 26 0
7 -15 -26 0
6 15 27 0
6 -15 -27 0
3 15 28 0
3 -15 -28 0
6 15 29 0
6 -15 -29 0
5 15 30 0
5 -15 -30 0
9 15 31 0
9 -15 -31 0
4 15 32 0
4 -15 -32 0
3 15 33 0
3 -15 -33 0
4 15 34 0
4 -15 -34 0
8 15 35 0
8 -15 -35 0
7 15 37 0
7 -15 -37 0
10 15 38 0
10 -15 -38 0
4 15 39 0
4 -15 -39 0
9 15 41 0
9 -15 -41 0
2 15 42 0
2 -15 -42 0
5 16 17 0
5 -16 -17 0
1 16 18 0
1 -16 -18 0
8 16 19 0
8 -16 -19 0
8 16 20 0
8 -16 -20 0
3 16 21 0
3 -16 -21 0
2 16 22 0
2 -16 -22 0
9 16 23 0
9 -16 -23 0
8 16 24 0
8 -16 -24 0
1 16 25 0
1 -16 -25 0
5 16 26 0
5 -16 -26 0
10 16 27 0
10 -16 -27 0
8 16 28 0
8 -16 -28 0
3 16 30 0
3 -16 -30 0
5 16 31 0
5 -16 -31 0
9 16 32 0
9 -16 -32 0
1 16 33 0
1 -16 -33 0
1 16 34 0
1 -16 -34 0
4 16 35 0
4 -16 -35 0
4 16 37 0
4 -16 -37 0
7 16 38 0
7 -16 -38 0
9 16 39 0
9 -16 -39 0
2 16 40 0
2 -16 -40 0
1 16 41 0
1 -16 -41 0
1 16 42 0
1 -16 -42 0
5 17 18 0
5 -17 -18 0
8 17 20 0
8 -17 -20 0
7 17 21 0
7 -17 -21 0
5 17 22 0
5 -17 -22 0
2 17 23 0
2 -17 -23 0
6 17 28 0
6 -17 -28 0
6 17 29 0
6 -17 -29 0
6 17 31 0
6 -17 -31 0
6 17 32 0
6 -17 -32 0
4 17 33 0
4 -17 -33 0
4 17 34 0
4 -17 -34 0
9 17 35 0
9 -17 -35 0
5 17 36 0
5 -17 -36 0
2 17 38 0
2 -17 -38 0
7 17 41 0
7 -17 -41 0
6 17 42 0
6 -17 -42 0
7 18 19 0
7 -18 -19 0
6 18 20 0
6 -18 -20 0
3 18 21 0
3 -18 -21 0
9 18 22 0
9 -18 -22 0
1 18 23 0
1 -18 -23 0
1 18 24 0
1 -18 -24 0
10 18 25 0
10 -18 -25 0
2 18 26 0
2 -18 -26 0
5 18 28 0
5 -18 -28 0
3 18 29 0
3 -18 -29 0
9 18 31 0
9 -18 -31 0
3 18 32 0
3 -18 -32 0
4 18 33 0
4 -18 -33 0
9 18 34 0
9 -18 -34 0
4 18 35 0
4 -18 -35 0
9 18 36 0
9 -18 -36 0
7 18 39 0
7 -18 -39 0
1 18 40 0
1 -18 -40 0
3 18 42 0
3 -18 -42 0
8 19 20 0
8 -19 -20 0
7 19 21 0
7 -19 -21 0
9 19 22 0
9 -19 -22 0
4 19 23 0
4 -19 -23 0
3 19 24 0
3 -19 -24 0
2 19 25 0
2 -19 -25 0
7 19 26 0
7 -19 -26 0
2 19 27 0
2 -19 -27 0
7 19 29 0
7 -19 -29 0
8 19 31 0
8 -19 -31 0
8 19 32 0
8 -19 -32 0
3 19 33 0
3 -19 -33 0
5 19 35 0
5 -19 -35 0
4 19 39 0
4 -19 -39 0
5 19 40 0
5 -19 -40 0
3 19 41 0
3 -19 -41 0
4 19 42 0
4 -19 -42 0
6 20 21 0
6 -20 -21 0
2 20 22 0
2 -20 -22 0
6 20 23 0
6 -20 -23 0
1 20 24 0
1 -20 -24 0
4 20 25 0
4 -20 -25 0
4 20 28 0
4 -20 -28 0
4 20 29 0
4 -20 -29 0
8 20 31 0
8 -20 -31 0
3 20 32 0
3 -20 -32 0
7 20 35 0
7 -20 -35 0
6 20 36 0
6 -20 -36 0
10 20 38 0
10 -20 -38 0
7 20 39 0
7 -20 -39 0
9 20 40 0
9 -20 -40 0
7 20 41 0
7 -20 -41 0
4 20 42 0
4 -20 -42 0
7 21 22 0
7 -21 -22 0
1 21 23 0
1 -21 -23 0
6 21 24 0
6 -21 -24 0
9 21 25 0
9 -21 -25 0
7 21 26 0
7 -21 -26 0
7 21 28 0
7 -21 -28 0
6 21 29 0
6 -21 -29 0
5 21 31 0
5 -21 -31 0
4 21 32 0
4 -21 -32 0
8 21 34 0
8 -21 -34 0
9 21 36 0
9 -21 -36 0
7 21 37 0
7 -21 -37 0
2 21 38 0
2 -21 -38 0
1 21 39 0
1 -21 -39 0
1 21 40 0
1 -21 -40 0
7 21 41 0
7 -21 -41 0
2 21 42 0
2 -21 -42 0
7 22 23 0
7 -22 -23 0
8 22 24 0
8 -22 -24 0
6 22 26 0
6 -22 -26 0
1 22 27 0
1 -22 -27 0
1 22 28 0
1 -22 -28 0
4 22 29 0
4 -22 -29 0
3 22 30 0
3 -22 -30 0
7 22 32 0
7 -22 -32 0
9 22 34 0
9 -22 -34 0
2 22 35 0
2 -22 -35 0
4 22 36 0
4 -22 -36 0
7 22 38 0
7 -22 -38 0
9 22 39 0
9 -22 -39 0
7 22 40 0
7 -22 -40 0
4 22 41 0
4 -22 -41 0
9 22 42 0
9 -22 -42 0
2 23 24 0
2 -23 -24 0
2 23 25 0
2 -23 -25 0
6 23 27 0
6 -23 -27 0
9 23 29 0
9 -23 -29 0
7 23 30 0
7 -23 -30 0
10 23 31 0
10 -23 -31 0
2 23 32 0
2 -23 -32 0
4 23 33 0
4 -23 -33 0
8 23 34 0
8 -23 -34 0
9 23 35 0
9 -23 -35 0
6 23 36 0
6 -23 -36 0
8 23 37 0
8 -23 -37 0
10 23 39 0
10 -23 -39 0
3 23 40 0
3 -23 -40 0
10 23 42 0
10 -23 -42 0
6 24 25 0
6 -24 -25 0
10 24 28 0
10 -24 -28 0
5 24 30 0
5 -24 -30 0
6 24 31 0
6 -24 -31 0
10 24 32 0
10 -24 -32 0
8 24 33 0
8 -24 -33 0
9 24 34 0
9 -24 -34 0
6 24 35 0
6 -24 -35 0
7 24 36 0
7 -24 -36 0
10 24 37 0
10 -24 -37 0
10 24 39 0
10 -24 -39 0
4 24 40 0
4 -24 -40 0
9 24 41 0
9 -24 -41 0
6 24 42 0
6 -24 -42 0
7 25 26 0
7 -25 -26 0
8 25 27 0
8 -25 -27 0
8 25 28 0
8 -25 -28 0
8 25 29 0
8 -25 -29 0
3 25 31 0
3 -25 -31 0
7 25 32 0
7 -25 -32 0
5 25 35 0
5 -25 -35 0
2 25 37 0
2 -25 -37 0
8 25 38 0
8 -25 -38 0
9 25 39 0
9 -25 -39 0
9 25 40 0
9 -25 -40 0
7 25 41 0
7 -25 -41 0
5 26 27 0
5 -26 -27 0
7 26 29 0
7 -26 -29 0
6 26 31 0
6 -26 -31 0
7 26 32 0
7 -26 -32 0
6 26 35 0
6 -26 -35 0
2 26 42 0
2 -26 -42 0
6 27 29 0
6 -27 -29 0
1 27 30 0
1 -27 -30 0
8 27 31 0
8 -27 -31 0
6 27 32 0
6 -27 -32 0
9 27 36 0
9 -27 -36 0
6 27 37 0
6 -27 -37 0
2 27 39 0
2 -27 -39 0
5 27 40 0
5 -27 -40 0
6 27 41 0
6 -27 -41 0
1 27 42 0
1 -27 -42 0
9 28 30 0
9 -28 -30 0
4 28 31 0
4 -28 -31 0
7 28 32 0
7 -28 -32 0
5 28 33 0
5 -28 -33 0
2 28 34 0
2 -28 -34 0
5 28 35 0
5 -28 -35 0
3 28 36 0
3 -28 -36 0
5 28 38 0
5 -28 -38 0
1 28 39 0
1 -28 -39 0
8 28 40 0
8 -28 -40 0
6 28 41 0
6 -28 -41 0
9 28 42 0
9 -28 -42 0
6 29 31 0
6 -29 -31 0
5 29 32 0
5 -29 -32 0
5 29 33 0
5 -29 -33 0
10 29 35 0
10 -29 -35 0
1 29 37 0
1 -29 -37 0
1 29 38 0
1 -29 -38 0
7 29 39 0
7 -29 -39 0
6 29 42 0
6 -29 -42 0
3 30 31 0
3 -30 -31 0
3 30 32 0
3 -30 -32 0
7 30 34 0
7 -30 -34 0
10 30 35 0
10 -30 -35 0
8 30 36 0
8 -30 -36 0
5 30 38 0
5 -30 -38 0
5 30 39 0
5 -30 -39 0
9 30 40 0
9 -30 -40 0
10 30 42 0
10 -30 -42 0
10 31 32 0
10 -31 -32 0
9 31 33 0
9 -31 -33 0
8 31 34 0
8 -31 -34 0
4 31 35 0
4 -31 -35 0
6 31 36 0
6 -31 -36 0
3 31 37 0
3 -31 -37 0
5 31 39 0
5 -31 -39 0
10 31 40 0
10 -31 -40 0
5 31 41 0
5 -31 -41 0
9 31 42 0
9 -31 -42 0
10 32 33 0
10 -32 -33 0
2 32 34 0
2 -32 -34 0
5 32 35 0
5 -32 -35 0
8 32 36 0
8 -32 -36 0
8 32 37 0
8 -32 -37 0
10 32 39 0
10 -32 -39 0
3 32 40 0
3 -32 -40 0
8 32 41 0
8 -32 -41 0
10 32 42 0
10 -32 -42 0
4 33 35 0
4 -33 -35 0
5 33 37 0
5 -33 -37 0
6 33 38 0
6 -33 -38 0
6 33 39 0
6 -33 -39 0
7 33 40 0
7 -33 -40 0
2 33 42 0
2 -33 -42 0
5 34 35 0
5 -34 -35 0
4 34 37 0
4 -34 -37 0
7 34 39 0
7 -34 -39 0
10 34 40 0
10 -34 -40 0
3 34 41 0
3 -34 -41 0
7 35 36 0
7 -35 -36 0
9 35 37 0
9 -35 -37 0
2 35 38 0
2 -35 -38 0
4 35 39 0
4 -35 -39 0
2 35 40 0
2 -35 -40 0
7 35 41 0
7 -35 -41 0
6 35 42 0
6 -35 -42 0
7 36 37 0
7 -36 -37 0
6 36 38 0
6 -36 -38 0
1 36 41 0
1 -36 -41 0
6 36 42 0
6 -36 -42 0
6 38 39 0
6 -38 -39 0
3 38 40 0
3 -38 -40 0
1 39 41 0
1 -39 -41 0
4 39 42 0
4 -39 -42 0
1 40 42 0
1 -40 -42 0
10 41 42 0
10 -41 -42 0
